\ENCODING=ISO-8859-1
\Problem name: IloCplex

Maximize
 obj1: cb(0) + cb(1) + cb(2) + cb(3) + cb(4) + cb(5) + cb(6) + cb(7) + cb(8)
       + cb(9) + cb(10) + cb(11) + cb(12) + cb(13) + cb(14) + cb(15) + cb(16)
       + cb(17) + cb(18) + cb(19) + cb(20) + cb(21) + cb(22) + cb(23) + cb(24)
       + cb(25) + cb(26) + cb(27) + cb(28) + cb(29) + cb(30) + cb(31) + cb(32)
       + cb(33) + cb(34) + cb(35) + cb(36) + cb(37) + cb(38) + cb(39) + cb(40)
       + cb(41) + cb(42) + cb(43) + cb(44) + cb(45) + cb(46) + cb(47) + cb(48)
       + cb(49) + cb(50) + cb(51) + cb(52) + cb(53) + cb(54) + cb(55) + cb(56)
       + cb(57) + cb(58) + cb(59) + cb(60) + cb(61) + cb(62) + cb(63)
Subject To
 c1: cb(0) + cb(1) + cb(2) + cb(3) + cb(4) + cb(5) + cb(6) + cb(7) <= 1
 c2: cb(8) + cb(9) + cb(10) + cb(11) + cb(12) + cb(13) + cb(14) + cb(15) <= 1
 c3: cb(16) + cb(17) + cb(18) + cb(19) + cb(20) + cb(21) + cb(22) + cb(23) <= 1
 c4: cb(24) + cb(25) + cb(26) + cb(27) + cb(28) + cb(29) + cb(30) + cb(31) <= 1
 c5: cb(32) + cb(33) + cb(34) + cb(35) + cb(36) + cb(37) + cb(38) + cb(39) <= 1
 c6: cb(40) + cb(41) + cb(42) + cb(43) + cb(44) + cb(45) + cb(46) + cb(47) <= 1
 c7: cb(48) + cb(49) + cb(50) + cb(51) + cb(52) + cb(53) + cb(54) + cb(55) <= 1
 c8: cb(56) + cb(57) + cb(58) + cb(59) + cb(60) + cb(61) + cb(62) + cb(63) <= 1
 c9: (1 - cb(15)) + (1 - cb(63)) + (1 - cb(31)) + (1 - cb(39)) + cb(7) + cb(23) <= 5
Bounds
 0 <= cb(0) <= 1
 0 <= cb(1) <= 1
 0 <= cb(2) <= 1
 0 <= cb(3) <= 1
 0 <= cb(4) <= 1
 0 <= cb(5) <= 1
 0 <= cb(6) <= 1
 0 <= cb(7) <= 1
 0 <= cb(8) <= 1
 0 <= cb(9) <= 1
 0 <= cb(10) <= 1
 0 <= cb(11) <= 1
 0 <= cb(12) <= 1
 0 <= cb(13) <= 1
 0 <= cb(14) <= 1
 0 <= cb(15) <= 1
 0 <= cb(16) <= 1
 0 <= cb(17) <= 1
 0 <= cb(18) <= 1
 0 <= cb(19) <= 1
 0 <= cb(20) <= 1
 0 <= cb(21) <= 1
 0 <= cb(22) <= 1
 0 <= cb(23) <= 1
 0 <= cb(24) <= 1
 0 <= cb(25) <= 1
 0 <= cb(26) <= 1
 0 <= cb(27) <= 1
 0 <= cb(28) <= 1
 0 <= cb(29) <= 1
 0 <= cb(30) <= 1
 0 <= cb(31) <= 1
 0 <= cb(32) <= 1
 0 <= cb(33) <= 1
 0 <= cb(34) <= 1
 0 <= cb(35) <= 1
 0 <= cb(36) <= 1
 0 <= cb(37) <= 1
 0 <= cb(38) <= 1
 0 <= cb(39) <= 1
 0 <= cb(40) <= 1
 0 <= cb(41) <= 1
 0 <= cb(42) <= 1
 0 <= cb(43) <= 1
 0 <= cb(44) <= 1
 0 <= cb(45) <= 1
 0 <= cb(46) <= 1
 0 <= cb(47) <= 1
 0 <= cb(48) <= 1
 0 <= cb(49) <= 1
 0 <= cb(50) <= 1
 0 <= cb(51) <= 1
 0 <= cb(52) <= 1
 0 <= cb(53) <= 1
 0 <= cb(54) <= 1
 0 <= cb(55) <= 1
 0 <= cb(56) <= 1
 0 <= cb(57) <= 1
 0 <= cb(58) <= 1
 0 <= cb(59) <= 1
 0 <= cb(60) <= 1
 0 <= cb(61) <= 1
 0 <= cb(62) <= 1
 0 <= cb(63) <= 1
Binaries
 cb(0)  cb(1)  cb(2)  cb(3)  cb(4)  cb(5)  cb(6)  cb(7)  cb(8)  cb(9)  cb(10) 
 cb(11)  cb(12)  cb(13)  cb(14)  cb(15)  cb(16)  cb(17)  cb(18)  cb(19) 
 cb(20)  cb(21)  cb(22)  cb(23)  cb(24)  cb(25)  cb(26)  cb(27)  cb(28) 
 cb(29)  cb(30)  cb(31)  cb(32)  cb(33)  cb(34)  cb(35)  cb(36)  cb(37) 
 cb(38)  cb(39)  cb(40)  cb(41)  cb(42)  cb(43)  cb(44)  cb(45)  cb(46) 
 cb(47)  cb(48)  cb(49)  cb(50)  cb(51)  cb(52)  cb(53)  cb(54)  cb(55) 
 cb(56)  cb(57)  cb(58)  cb(59)  cb(60)  cb(61)  cb(62)  cb(63) 
End
